(set-logic QF_NRA)
(set-info :source |Benchmarks generated from hycomp (https://es-static.fbk.eu/tools/hycomp/). BMC instances of non-linear hybrid automata taken from: Alessandro Cimatti, Sergio Mover, Stefano Tonetta, A quantifier-free SMT encoding of non-linear hybrid automata, FMCAD 2012 and Alessandro Cimatti, Sergio Mover, Stefano Tonetta, Quantier-free encoding of invariants for Hybrid Systems, Formal Methods in System Design. This instance solves a BMC problem of depth 1 and uses the quantifier free encoding encoding. Contacts: Sergio Mover (mover@fbk.eu), Stefano Tonetta (tonettas@fbk.eu), Alessandro Cimatti (cimatti@fbk.eu).|)
(set-info :smt-lib-version 2.0)
(set-info :category "industrial")
(set-info :status unsat)
;; MathSAT API call trace
;; generated on Mon Mar 19 10:48:52 2012
(declare-fun b.delta__AT0 () Real)
(declare-fun b.EVENT.0__AT0 () Bool)
(declare-fun b.y__AT1 () Real)
(declare-fun b.counter.0__AT1 () Bool)
(declare-fun b.counter.1__AT1 () Bool)
(declare-fun b.counter.2__AT1 () Bool)
(declare-fun speed_loss__AT0 () Real)
(declare-fun b.counter.3__AT1 () Bool)
(declare-fun b.EVENT.0__AT1 () Bool)
(declare-fun b.EVENT.1__AT1 () Bool)
(declare-fun b.counter.3__AT0 () Bool)
(declare-fun b.x__AT0 () Real)
(declare-fun b.speed_y__AT0 () Real)
(declare-fun b.speed_x__AT0 () Real)
(declare-fun b.x__AT1 () Real)
(declare-fun b.EVENT.1__AT0 () Bool)
(declare-fun b.event_is_timed__AT1 () Bool)
(declare-fun b.time__AT0 () Real)
(declare-fun b.speed_x__AT1 () Real)
(declare-fun b.speed_y__AT1 () Real)
(declare-fun b.y__AT0 () Real)
(declare-fun b.counter.0__AT0 () Bool)
(declare-fun b.counter.1__AT0 () Bool)
(declare-fun g__AT0 () Real)
(declare-fun b.event_is_timed__AT0 () Bool)
(declare-fun b.counter.2__AT0 () Bool)
(declare-fun b.time__AT1 () Real)
(declare-fun b.delta__AT1 () Real)
(assert (let ((.def_72 (* (- 1.0) g__AT0)))
(let ((.def_73 (* (/ 1 2) .def_72)))
(let ((.def_81 (* 2.0 .def_73)))
(let ((.def_87 (* (- 1.0) .def_81)))
(let ((.def_268 (* .def_87 b.delta__AT1)))
(let ((.def_269 (<= b.speed_y__AT1 .def_268)))
(let ((.def_267 (<= b.speed_y__AT1 0.0 )))
(let ((.def_270 (and .def_267 .def_269)))
(let ((.def_263 (* .def_81 b.delta__AT1)))
(let ((.def_264 (+ b.speed_y__AT1 .def_263)))
(let ((.def_265 (<= 0.0 .def_264)))
(let ((.def_262 (<= 0.0 b.speed_y__AT1)))
(let ((.def_266 (and .def_262 .def_265)))
(let ((.def_271 (or .def_266 .def_270)))
(let ((.def_257 (* b.speed_y__AT1 b.delta__AT1)))
(let ((.def_255 (* b.delta__AT1 b.delta__AT1)))
(let ((.def_256 (* .def_73 .def_255)))
(let ((.def_258 (+ .def_256 .def_257)))
(let ((.def_259 (+ b.y__AT1 .def_258)))
(let ((.def_260 (<= 0.0 .def_259)))
(let ((.def_245 (<= 0.0 b.y__AT1)))
(let ((.def_261 (and .def_245 .def_260)))
(let ((.def_272 (and .def_261 .def_271)))
(let ((.def_53 (<= g__AT0 10.0 )))
(let ((.def_52 (<= 8.0 g__AT0)))
(let ((.def_54 (and .def_52 .def_53)))
(let ((.def_273 (and .def_54 .def_272)))
(let ((.def_61 (<= speed_loss__AT0 (/ 1 2))))
(let ((.def_58 (<= (/ 1 10) speed_loss__AT0)))
(let ((.def_62 (and .def_58 .def_61)))
(let ((.def_274 (and .def_62 .def_273)))
(let ((.def_28 (not b.counter.0__AT0)))
(let ((.def_249 (or b.counter.1__AT0 .def_28)))
(let ((.def_31 (not b.counter.2__AT0)))
(let ((.def_250 (or .def_31 .def_249)))
(let ((.def_251 (or b.counter.3__AT0 .def_250)))
(let ((.def_63 (and .def_54 .def_62)))
(let ((.def_246 (and .def_63 .def_245)))
(let ((.def_242 (not b.EVENT.0__AT1)))
(let ((.def_240 (not b.EVENT.1__AT1)))
(let ((.def_243 (or .def_240 .def_242)))
(let ((.def_137 (not b.counter.1__AT1)))
(let ((.def_4 (not b.counter.0__AT1)))
(let ((.def_233 (or .def_4 .def_137)))
(let ((.def_237 (or b.counter.3__AT1 .def_233)))
(let ((.def_234 (or b.counter.2__AT1 .def_233)))
(let ((.def_8 (not b.counter.2__AT1)))
(let ((.def_232 (or .def_4 .def_8)))
(let ((.def_235 (and .def_232 .def_234)))
(let ((.def_154 (not b.counter.3__AT1)))
(let ((.def_236 (or .def_154 .def_235)))
(let ((.def_238 (and .def_236 .def_237)))
(let ((.def_244 (and .def_238 .def_243)))
(let ((.def_247 (and .def_244 .def_246)))
(let ((.def_227 (<= 0.0 b.delta__AT0)))
(let ((.def_47 (not b.EVENT.0__AT0)))
(let ((.def_45 (not b.EVENT.1__AT0)))
(let ((.def_125 (and .def_45 .def_47)))
(let ((.def_126 (not .def_125)))
(let ((.def_228 (or .def_126 .def_227)))
(let ((.def_229 (or b.EVENT.1__AT0 .def_228)))
(let ((.def_176 (= b.counter.0__AT1 b.counter.0__AT0)))
(let ((.def_174 (= b.counter.1__AT1 b.counter.1__AT0)))
(let ((.def_172 (= b.counter.2__AT1 b.counter.2__AT0)))
(let ((.def_171 (= b.counter.3__AT1 b.counter.3__AT0)))
(let ((.def_173 (and .def_171 .def_172)))
(let ((.def_175 (and .def_173 .def_174)))
(let ((.def_177 (and .def_175 .def_176)))
(let ((.def_224 (or .def_126 .def_177)))
(let ((.def_225 (or b.EVENT.1__AT0 .def_224)))
(let ((.def_184 (= b.x__AT1 b.x__AT0)))
(let ((.def_181 (= b.y__AT0 b.y__AT1)))
(let ((.def_218 (and .def_181 .def_184)))
(let ((.def_107 (= b.speed_x__AT0 b.speed_x__AT1)))
(let ((.def_219 (and .def_107 .def_218)))
(let ((.def_170 (= b.speed_y__AT0 b.speed_y__AT1)))
(let ((.def_220 (and .def_170 .def_219)))
(let ((.def_215 (= b.delta__AT0 0.0 )))
(let ((.def_216 (and .def_125 .def_215)))
(let ((.def_217 (not .def_216)))
(let ((.def_221 (or .def_217 .def_220)))
(let ((.def_222 (or b.EVENT.1__AT0 .def_221)))
(let ((.def_195 (= b.time__AT0 b.time__AT1)))
(let ((.def_207 (and .def_184 .def_195)))
(let ((.def_208 (and .def_181 .def_207)))
(let ((.def_209 (and .def_107 .def_208)))
(let ((.def_210 (and .def_170 .def_209)))
(let ((.def_211 (and .def_177 .def_210)))
(let ((.def_212 (or .def_45 .def_211)))
(let ((.def_198 (* (- 1.0) b.time__AT1)))
(let ((.def_201 (+ b.delta__AT0 .def_198)))
(let ((.def_202 (+ b.time__AT0 .def_201)))
(let ((.def_203 (= .def_202 0.0 )))
(let ((.def_204 (or .def_126 .def_203)))
(let ((.def_205 (or b.EVENT.1__AT0 .def_204)))
(let ((.def_196 (or .def_125 .def_195)))
(let ((.def_197 (or b.EVENT.1__AT0 .def_196)))
(let ((.def_206 (and .def_197 .def_205)))
(let ((.def_213 (and .def_206 .def_212)))
(let ((.def_191 (= .def_126 b.event_is_timed__AT1)))
(let ((.def_189 (= b.event_is_timed__AT0 .def_125)))
(let ((.def_192 (and .def_189 .def_191)))
(let ((.def_178 (and .def_170 .def_177)))
(let ((.def_80 (<= 0.0 b.speed_y__AT0)))
(let ((.def_129 (not .def_80)))
(let ((.def_128 (= b.y__AT0 0.0 )))
(let ((.def_130 (and .def_128 .def_129)))
(let ((.def_179 (or .def_130 .def_178)))
(let ((.def_146 (or .def_4 b.counter.0__AT0)))
(let ((.def_145 (or b.counter.0__AT1 .def_28)))
(let ((.def_147 (and .def_145 .def_146)))
(let ((.def_148 (and .def_137 .def_147)))
(let ((.def_149 (or b.counter.1__AT0 .def_148)))
(let ((.def_26 (not b.counter.1__AT0)))
(let ((.def_144 (or b.counter.1__AT1 .def_26)))
(let ((.def_150 (and .def_144 .def_149)))
(let ((.def_162 (and .def_8 .def_150)))
(let ((.def_163 (or b.counter.2__AT0 .def_162)))
(let ((.def_157 (and .def_28 .def_137)))
(let ((.def_158 (or b.counter.1__AT0 .def_157)))
(let ((.def_159 (and .def_144 .def_158)))
(let ((.def_160 (and b.counter.2__AT1 .def_159)))
(let ((.def_161 (or .def_31 .def_160)))
(let ((.def_164 (and .def_161 .def_163)))
(let ((.def_165 (and b.counter.3__AT1 .def_164)))
(let ((.def_166 (or b.counter.3__AT0 .def_165)))
(let ((.def_151 (and b.counter.2__AT1 .def_150)))
(let ((.def_152 (or b.counter.2__AT0 .def_151)))
(let ((.def_140 (or b.counter.1__AT1 b.counter.1__AT0)))
(let ((.def_138 (and b.counter.0__AT1 .def_137)))
(let ((.def_139 (or .def_26 .def_138)))
(let ((.def_141 (and .def_139 .def_140)))
(let ((.def_142 (and .def_8 .def_141)))
(let ((.def_143 (or .def_31 .def_142)))
(let ((.def_153 (and .def_143 .def_152)))
(let ((.def_155 (and .def_153 .def_154)))
(let ((.def_34 (not b.counter.3__AT0)))
(let ((.def_156 (or .def_34 .def_155)))
(let ((.def_167 (and .def_156 .def_166)))
(let ((.def_134 (* (- 1.0) b.speed_y__AT0)))
(let ((.def_132 (* (- 1.0) speed_loss__AT0)))
(let ((.def_133 (+ 1.0 .def_132)))
(let ((.def_135 (* .def_133 .def_134)))
(let ((.def_136 (= b.speed_y__AT1 .def_135)))
(let ((.def_168 (and .def_136 .def_167)))
(let ((.def_131 (not .def_130)))
(let ((.def_169 (or .def_131 .def_168)))
(let ((.def_180 (and .def_169 .def_179)))
(let ((.def_182 (and .def_180 .def_181)))
(let ((.def_183 (and .def_107 .def_182)))
(let ((.def_185 (and .def_183 .def_184)))
(let ((.def_186 (or .def_125 .def_185)))
(let ((.def_187 (or b.EVENT.1__AT0 .def_186)))
(let ((.def_117 (* (- 1.0) b.y__AT1)))
(let ((.def_75 (* b.speed_y__AT0 b.delta__AT0)))
(let ((.def_120 (+ .def_75 .def_117)))
(let ((.def_70 (* b.delta__AT0 b.delta__AT0)))
(let ((.def_74 (* .def_70 .def_73)))
(let ((.def_121 (+ .def_74 .def_120)))
(let ((.def_122 (+ b.y__AT0 .def_121)))
(let ((.def_123 (= .def_122 0.0 )))
(let ((.def_111 (* (- 1.0) b.speed_y__AT1)))
(let ((.def_109 (* b.delta__AT0 .def_72)))
(let ((.def_112 (+ .def_109 .def_111)))
(let ((.def_113 (+ b.speed_y__AT0 .def_112)))
(let ((.def_114 (= .def_113 0.0 )))
(let ((.def_99 (* (- 1.0) b.x__AT1)))
(let ((.def_103 (+ .def_99 b.x__AT0)))
(let ((.def_97 (* b.delta__AT0 b.speed_x__AT0)))
(let ((.def_104 (+ .def_97 .def_103)))
(let ((.def_105 (= .def_104 0.0 )))
(let ((.def_108 (and .def_105 .def_107)))
(let ((.def_115 (and .def_108 .def_114)))
(let ((.def_124 (and .def_115 .def_123)))
(let ((.def_127 (or .def_124 .def_126)))
(let ((.def_188 (and .def_127 .def_187)))
(let ((.def_193 (and .def_188 .def_192)))
(let ((.def_214 (and .def_193 .def_213)))
(let ((.def_223 (and .def_214 .def_222)))
(let ((.def_226 (and .def_223 .def_225)))
(let ((.def_230 (and .def_226 .def_229)))
(let ((.def_231 (and .def_45 .def_230)))
(let ((.def_248 (and .def_231 .def_247)))
(let ((.def_252 (and .def_248 .def_251)))
(let ((.def_88 (* b.delta__AT0 .def_87)))
(let ((.def_89 (<= b.speed_y__AT0 .def_88)))
(let ((.def_86 (<= b.speed_y__AT0 0.0 )))
(let ((.def_90 (and .def_86 .def_89)))
(let ((.def_82 (* b.delta__AT0 .def_81)))
(let ((.def_83 (+ b.speed_y__AT0 .def_82)))
(let ((.def_84 (<= 0.0 .def_83)))
(let ((.def_85 (and .def_80 .def_84)))
(let ((.def_91 (or .def_85 .def_90)))
(let ((.def_76 (+ .def_74 .def_75)))
(let ((.def_77 (+ b.y__AT0 .def_76)))
(let ((.def_78 (<= 0.0 .def_77)))
(let ((.def_64 (<= 0.0 b.y__AT0)))
(let ((.def_79 (and .def_64 .def_78)))
(let ((.def_92 (and .def_79 .def_91)))
(let ((.def_93 (and .def_54 .def_92)))
(let ((.def_94 (and .def_62 .def_93)))
(let ((.def_65 (and .def_63 .def_64)))
(let ((.def_48 (or .def_45 .def_47)))
(let ((.def_38 (or .def_26 .def_28)))
(let ((.def_42 (or b.counter.3__AT0 .def_38)))
(let ((.def_39 (or b.counter.2__AT0 .def_38)))
(let ((.def_37 (or .def_28 .def_31)))
(let ((.def_40 (and .def_37 .def_39)))
(let ((.def_41 (or .def_34 .def_40)))
(let ((.def_43 (and .def_41 .def_42)))
(let ((.def_49 (and .def_43 .def_48)))
(let ((.def_66 (and .def_49 .def_65)))
(let ((.def_29 (and .def_26 .def_28)))
(let ((.def_32 (and .def_29 .def_31)))
(let ((.def_35 (and .def_32 .def_34)))
(let ((.def_23 (= b.speed_y__AT0 0.0 )))
(let ((.def_20 (= b.y__AT0 10.0 )))
(let ((.def_15 (= b.time__AT0 0.0 )))
(let ((.def_17 (and .def_15 b.event_is_timed__AT0)))
(let ((.def_21 (and .def_17 .def_20)))
(let ((.def_24 (and .def_21 .def_23)))
(let ((.def_36 (and .def_24 .def_35)))
(let ((.def_67 (and .def_36 .def_66)))
(let ((.def_6 (or .def_4 b.counter.1__AT1)))
(let ((.def_9 (or .def_6 .def_8)))
(let ((.def_11 (or .def_9 b.counter.3__AT1)))
(let ((.def_12 (not .def_11)))
(let ((.def_68 (and .def_12 .def_67)))
(let ((.def_95 (and .def_68 .def_94)))
(let ((.def_253 (and .def_95 .def_252)))
(let ((.def_275 (and .def_253 .def_274)))
.def_275))))))))))))))))))))))))))))))))))))))))))))))))))))))))))))))))))))))))))))))))))))))))))))))))))))))))))))))))))))))))))))))))))))))))))))))))))))))))))))))))))))))))))))))))))))))))))))))))))))))))))))))))))))))))))))))))))))))))
(check-sat)
(exit)
